unsat
(:eliminated-vars    1
 :max-memory         17.95
 :memory             17.95
 :nlsat-conflicts    1
 :nlsat-propagations 5
 :nlsat-stages       2
 :num-allocs         18337
 :rlimit-count       2357
 :time               0.00
 :total-time         0.01)
